(set-logic QF_S)
(declare-fun V51 () String )
(declare-fun V64 () String )
(declare-fun V79 () String )
(declare-fun V36 () String )
(declare-fun V32 () String )
(declare-fun V10 () String )
(declare-fun V62 () String )
(declare-fun V55 () String )
(declare-fun V57 () String )
(declare-fun V95 () String )
(declare-fun V48 () String )
(declare-fun V27 () String )
(declare-fun V3 () String )
(declare-fun V71 () String )
(declare-fun V54 () String )
(declare-fun V87 () String )
(declare-fun V7 () String )
(declare-fun V77 () String )
(declare-fun V31 () String )
(declare-fun V42 () String )
(declare-fun V41 () String )
(declare-fun V113 () String )
(declare-fun V92 () String )
(declare-fun V11 () String )
(declare-fun V100 () String )
(declare-fun V83 () String )
(declare-fun V74 () String )
(declare-fun V78 () String )
(declare-fun V106 () String )
(declare-fun V46 () String )
(declare-fun V116 () String )
(declare-fun V72 () String )
(declare-fun V105 () String )
(declare-fun V73 () String )
(declare-fun V29 () String )
(declare-fun V2 () String )
(declare-fun V102 () String )
(declare-fun V33 () String )
(declare-fun V66 () String )
(declare-fun V61 () String )
(declare-fun V110 () String )
(declare-fun V25 () String )
(declare-fun V5 () String )
(declare-fun V98 () String )
(declare-fun V104 () String )
(declare-fun V9 () String )
(declare-fun V91 () String )
(declare-fun V75 () String )
(declare-fun V70 () String )
(declare-fun V76 () String )
(declare-fun V23 () String )
(declare-fun V81 () String )
(declare-fun V85 () String )
(declare-fun V109 () String )
(declare-fun V15 () String )
(declare-fun V82 () String )
(declare-fun V35 () String )
(declare-fun V97 () String )
(declare-fun V67 () String )
(declare-fun V50 () String )
(declare-fun V60 () String )
(declare-fun V86 () String )
(declare-fun V0 () String )
(declare-fun V56 () String )
(declare-fun V43 () String )
(declare-fun V30 () String )
(declare-fun V65 () String )
(declare-fun V115 () String )
(declare-fun V28 () String )
(declare-fun V8 () String )
(declare-fun V112 () String )
(declare-fun V37 () String )
(declare-fun V17 () String )
(declare-fun V22 () String )
(declare-fun V80 () String )
(declare-fun V111 () String )
(declare-fun V16 () String )
(declare-fun V93 () String )
(declare-fun V38 () String )
(declare-fun V101 () String )
(declare-fun V14 () String )
(declare-fun V34 () String )
(declare-fun V96 () String )
(declare-fun V20 () String )
(declare-fun V18 () String )
(declare-fun V107 () String )
(declare-fun V24 () String )
(declare-fun V89 () String )
(declare-fun V84 () String )
(declare-fun V19 () String )
(declare-fun V52 () String )
(declare-fun V68 () String )
(declare-fun V6 () String )
(declare-fun V12 () String )
(declare-fun V1 () String )
(declare-fun V69 () String )
(declare-fun V108 () String )
(declare-fun V90 () String )
(declare-fun V53 () String )
(declare-fun V45 () String )
(declare-fun V63 () String )
(declare-fun V99 () String )
(declare-fun V47 () String )
(declare-fun V59 () String )
(declare-fun V44 () String )
(declare-fun V117 () String )
(declare-fun V40 () String )
(declare-fun V21 () String )
(declare-fun V26 () String )
(declare-fun V94 () String )
(declare-fun V49 () String )
(declare-fun V4 () String )
(declare-fun V88 () String )
(declare-fun V58 () String )
(declare-fun V103 () String )
(declare-fun V13 () String )
(declare-fun V114 () String )
(declare-fun V39 () String )
(assert (= "" "H" ) )
(assert (= "" (str.++ V71 V43 ) ) )
(assert (= "" (str.++ (str.++ V79 V80 ) V81 ) ) )
(assert (= "," V0 ) )
(assert (= ":" V34 ) )
(assert (= "A" V19 ) )
(assert (= "B" V5 ) )
(assert (= "C" V13 ) )
(assert (= "D" V23 ) )
(assert (= "E" V22 ) )
(assert (= "F" V8 ) )
(assert (= "H" V31 ) )
(assert (= "M" V16 ) )
(assert (= "S" V30 ) )
(assert (= V46 V40 ) )
(assert (= V72 V68 ) )
(assert (= V68 V79 ) )
(assert (= V74 V49 ) )
(assert (= V69 V93 ) )
(assert (= V69 V80 ) )
(assert (= V73 V48 ) )
(assert (= V70 V81 ) )
(assert (= V71 (str.++ (str.++ V85 "e" ) V86 ) ) )
(assert (= V66 (str.++ (str.++ V85 "E" ) V86 ) ) )
(assert (= V64 V9 ) )
(assert (= V20 V45 ) )
(assert (= V20 V10 ) )
(assert (= V78 V40 ) )
(assert (= V77 V9 ) )
(assert (= V26 V87 ) )
(assert (= V26 V10 ) )
(assert (= V63 V40 ) )
(assert (= V62 V9 ) )
(assert (= V14 V100 ) )
(assert (= V14 V10 ) )
(assert (= V76 V40 ) )
(assert (= V75 V9 ) )
(assert (= V24 V117 ) )
(assert (= V24 V10 ) )
(assert (= V40 V17 ) )
(assert (= V39 V9 ) )
(assert (= V10 V84 ) )
(assert (= V32 (str.++ (str.++ V90 "H" ) V91 ) ) )
(assert (= V92 (str.++ (str.++ V90 "h" ) V91 ) ) )
(assert (= V17 (str.++ (str.++ V107 "M" ) V108 ) ) )
(assert (= V109 (str.++ (str.++ V107 "m" ) V108 ) ) )
(assert (= V21 V11 ) )
(assert (= V27 V11 ) )
(assert (= V15 V11 ) )
(assert (= V25 V11 ) )
(assert (= V18 V41 ) )
(assert (= V47 V79 ) )
(assert (= V80 V94 ) )
(assert (= V29 V3 ) )
(assert (= V116 (str.++ (str.++ V114 "b" ) V115 ) ) )
(assert (= V50 (str.++ (str.++ V88 "e" ) V89 ) ) )
(assert (= V6 (str.++ (str.++ V114 "B" ) V115 ) ) )
(assert (= V28 V2 ) )
(assert (= V28 (str.++ (str.++ V88 "E" ) V89 ) ) )
(assert (= V12 (str.++ (str.++ V64 V46 ) V41 ) ) )
(assert (= V12 (str.++ (str.++ V77 V78 ) V41 ) ) )
(assert (= V12 (str.++ (str.++ V62 V63 ) V41 ) ) )
(assert (= V12 (str.++ (str.++ V75 V76 ) V41 ) ) )
(assert (= V12 (str.++ (str.++ V39 V40 ) V41 ) ) )
(assert (= V12 (str.++ (str.++ V95 V96 ) V41 ) ) )
(assert (= V12 (str.++ (str.++ V103 V104 ) V41 ) ) )
(assert (= V12 (str.++ (str.++ V52 V53 ) V54 ) ) )
(assert (= V12 (str.++ (str.++ V55 "H" ) V56 ) ) )
(assert (= V12 (str.++ (str.++ V101 "M" ) V102 ) ) )
(assert (= V12 (str.++ (str.++ V9 V20 ) V21 ) ) )
(assert (= V12 (str.++ (str.++ V9 V26 ) V27 ) ) )
(assert (= V12 (str.++ (str.++ V9 V14 ) V15 ) ) )
(assert (= V12 (str.++ (str.++ V9 V24 ) V25 ) ) )
(assert (= V12 (str.++ (str.++ V9 V10 ) V11 ) ) )
(assert (= V12 (str.++ (str.++ V9 V32 ) V33 ) ) )
(assert (= V12 (str.++ (str.++ V9 V17 ) V18 ) ) )
(assert (= V12 (str.++ (str.++ V57 ".sock" ) V58 ) ) )
(assert (= V4 (str.++ (str.++ V82 "," ) V83 ) ) )
(assert (= V4 (str.++ (str.++ V105 "B" ) V106 ) ) )
(assert (= V4 (str.++ (str.++ V110 "E" ) V111 ) ) )
(assert (= V4 (str.++ (str.++ V35 V36 ) V37 ) ) )
(assert (= V4 (str.++ (str.++ V98 V99 ) V37 ) ) )
(assert (= V4 (str.++ (str.++ V97 V51 ) V37 ) ) )
(assert (= V4 (str.++ (str.++ V1 V6 ) V7 ) ) )
(assert (= V4 (str.++ (str.++ V1 V28 ) V29 ) ) )
(assert (= V4 (str.++ (str.++ V1 V2 ) V3 ) ) )
(assert (= V4 (str.++ (str.++ V38 V12 ) V37 ) ) )
(assert (= V4 (str.++ (str.++ V60 "://" ) V61 ) ) )
(assert (= V4 (str.++ "mongodb://" V59 ) ) )
(assert (= (str.++ V46 V41 ) (str.++ V40 V41 ) ) )
(assert (= (str.++ V72 V73 ) (str.++ V47 V48 ) ) )
(assert (= (str.++ V68 V69 ) (str.++ V79 V80 ) ) )
(assert (= (str.++ V69 V70 ) (str.++ V80 V81 ) ) )
(assert (= (str.++ V73 V74 ) (str.++ V48 V49 ) ) )
(assert (= (str.++ V93 V73 ) (str.++ V94 V48 ) ) )
(assert (= (str.++ V71 V43 ) (str.++ (str.++ V72 V73 ) V74 ) ) )
(assert (= (str.++ V71 V43 ) (str.++ (str.++ V68 V69 ) V70 ) ) )
(assert (= (str.++ V64 V46 ) (str.++ V39 V40 ) ) )
(assert (= (str.++ V20 V21 ) (str.++ V10 V11 ) ) )
(assert (= (str.++ V45 V46 ) (str.++ V87 V78 ) ) )
(assert (= (str.++ V45 V46 ) (str.++ V100 V63 ) ) )
(assert (= (str.++ V45 V46 ) (str.++ V117 V76 ) ) )
(assert (= (str.++ V45 V46 ) (str.++ V84 V40 ) ) )
(assert (= (str.++ V45 V46 ) (str.++ (str.++ V112 "E" ) V113 ) ) )
(assert (= (str.++ V45 V46 ) (str.++ (str.++ V65 V66 ) V67 ) ) )
(assert (= (str.++ V45 V46 ) (str.++ (str.++ V42 V43 ) V44 ) ) )
(assert (= (str.++ V78 V41 ) (str.++ V40 V41 ) ) )
(assert (= (str.++ V77 V78 ) (str.++ V39 V40 ) ) )
(assert (= (str.++ V26 V27 ) (str.++ V10 V11 ) ) )
(assert (= (str.++ V63 V41 ) (str.++ V40 V41 ) ) )
(assert (= (str.++ V62 V63 ) (str.++ V39 V40 ) ) )
(assert (= (str.++ V14 V15 ) (str.++ V10 V11 ) ) )
(assert (= (str.++ V76 V41 ) (str.++ V40 V41 ) ) )
(assert (= (str.++ V75 V76 ) (str.++ V39 V40 ) ) )
(assert (= (str.++ V24 V25 ) (str.++ V10 V11 ) ) )
(assert (= (str.++ V40 V41 ) (str.++ V17 V18 ) ) )
(assert (= (str.++ V39 V40 ) (str.++ V9 V17 ) ) )
(assert (= (str.++ V50 V51 ) (str.++ (str.++ V47 V48 ) V49 ) ) )
(assert (= (str.++ V50 V51 ) (str.++ (str.++ V79 V80 ) V81 ) ) )
(assert (= (str.++ V28 V29 ) (str.++ V2 V3 ) ) )
( check-sat )
